letting n be 4
letting locs be function(
        (1,1) --> 2,
        (2,2) --> 2
)
letting less_than be relation(
        ((1,1) , (2,1)),
        ((4,2) , (3,2)),
        ((3,3) , (3,4)),
        ((3,4) , (4,4))
)